# Objective value = 161
WA1n 0
WA1p 0
WA2n 1
WA2p 0
WB1n 0
WB1p 0
WB2n 0
WB2p 1
WC1n 0
WC1p 0
WC2n 0
WC2p 1
WD1n 0
WD1p 0
WD2n 0
WD2p 1
WE1n 0
WE1p 2
WF1n 0
WF1p 2
WG1n 4
WG1p 0
WG2n 1
WG2p 0
WH1n 0
WH1p 4
WH2n 0
WH2p 1
WI1n 0
WI1p 11
WJ1n 0
WJ1p 11
WK1n 0
WK1p 26
WK2n 0
WK2p 1
WL1n 0
WL1p 26
WL2n 0
WL2p 1
WT1n 0
WT1p 59
5 7
a 0
b 0
c 0
d 1
e 0
f 1
g 0
h 1
i 1
j 1
k 0
l 0
m 1
n 1
o 1
p 1
q 1
r 1
s 1
t 1
u 1
